\ This file has been generated by DOcplex
\ ENCODING=ISO-8859-1
\Problem name: BMW

Minimize
 obj: x_10.468_m10.776#39 + x_8.407_m10.776#40 + x_6.345_m10.776#41
      + x_4.284_m10.776#42 + x_2.223_m10.776#43 + x_0.161_m10.776#44
      + x_m1.9_m10.776#45 + x_m3.962_m10.776#46 + x_10.468_8.621#48
      + x_10.468_6.466#49 + x_10.468_4.31#50 + x_10.468_2.155#51
      + x_10.468_0.0#52 + x_10.468_m2.155#53 + x_10.468_m4.31#54
      + x_10.468_m6.466#55 + x_10.468_m8.621#56 + x_m6.023_m10.776#57
      + x_m6.023_m8.571#58 + x_m6.023_m6.365#59 + x_m6.023_m4.16#60
      + x_m6.023_m1.954#61 + x_m6.023_0.251#62 + x_m6.023_2.456#63
      + x_m6.023_4.662#64 + x_m10.468_10.776#65 + 2 x_10.468_10.776#66
      + x_8.374_10.776#67 + x_6.281_10.776#68 + x_4.187_10.776#69
      + x_2.094_10.776#70 + x_0.0_10.776#71 + x_m2.094_10.776#72
      + x_m4.187_10.776#73 + x_m6.281_10.776#74 + x_m8.374_10.776#75
      + x_m10.468_6.867#76 + x_m8.245_6.867#77
Subject To
 c1: x_10.468_8.621 + x_10.468_6.466 + x_10.468_4.31 + x_10.468_2.155
     + x_10.468_10.776#27 + x_8.374_10.776 + x_6.281_10.776 + x_4.187_10.776
     + x_2.094_10.776 + x_0.0_10.776 = 1
 c2: x_10.468_8.621 + x_10.468_6.466 + x_10.468_4.31 + x_10.468_2.155
     + x_10.468_10.776#27 + x_8.374_10.776 + x_6.281_10.776 + x_4.187_10.776
     + x_2.094_10.776 + x_0.0_10.776 + x_m2.094_10.776 = 1
 c3: x_10.468_8.621 + x_10.468_6.466 + x_10.468_4.31 + x_10.468_2.155
     + x_10.468_0.0 + x_10.468_m2.155 + x_10.468_10.776#27 + x_8.374_10.776
     + x_6.281_10.776 + x_4.187_10.776 + x_2.094_10.776 = 1
 c4: x_m6.023_4.662 + x_8.374_10.776 + x_6.281_10.776 + x_4.187_10.776
     + x_2.094_10.776 + x_0.0_10.776 + x_m2.094_10.776 + x_m4.187_10.776 = 1
 c5: x_10.468_8.621 + x_10.468_6.466 + x_10.468_4.31 + x_10.468_2.155
     + x_10.468_0.0 + x_8.374_10.776 + x_6.281_10.776 + x_4.187_10.776
     + x_2.094_10.776 + x_0.0_10.776 = 1
 c6: x_10.468_8.621 + x_10.468_6.466 + x_10.468_4.31 + x_10.468_2.155
     + x_10.468_0.0 + x_10.468_m2.155 + x_10.468_m4.31 = 1
 c7: x_m6.023_2.456 + x_m6.023_4.662 + x_4.187_10.776 + x_2.094_10.776
     + x_0.0_10.776 + x_m2.094_10.776 + x_m4.187_10.776 + x_m6.281_10.776
     + x_m8.374_10.776 + x_m8.245_6.867 = 1
 c8: x_m6.023_2.456 + x_m6.023_4.662 + x_6.281_10.776 + x_4.187_10.776
     + x_2.094_10.776 + x_0.0_10.776 + x_m2.094_10.776 = 1
 c9: x_10.468_6.466 + x_10.468_4.31 + x_10.468_2.155 + x_10.468_0.0
     + x_10.468_m2.155 = 1
 c10: x_10.468_4.31 + x_10.468_2.155 + x_10.468_0.0 + x_10.468_m2.155
      + x_10.468_m4.31 + x_10.468_m6.466 + x_10.468_m8.621 = 1
 c11: x_m6.023_0.251 + x_m6.023_2.456 + x_m6.023_4.662 + x_m10.468_10.776
      + x_2.094_10.776 + x_0.0_10.776 + x_m2.094_10.776 + x_m4.187_10.776
      + x_m6.281_10.776 + x_m8.374_10.776 + x_m10.468_6.867 + x_m8.245_6.867 = 
      1
 c12: x_m6.023_m1.954 + x_m6.023_0.251 + x_m6.023_2.456 + x_m6.023_4.662
      + x_2.094_10.776 + x_0.0_10.776 + x_m2.094_10.776 + x_m4.187_10.776
      + x_m6.281_10.776 = 1
 c13: x_m6.023_0.251 + x_m6.023_2.456 + x_m6.023_4.662 = 1
 c14: x_10.468_4.31 + x_10.468_2.155 + x_10.468_0.0 + x_10.468_m2.155
      + x_10.468_m4.31 + x_10.468_m6.466 = 1
 c15: x_10.468_m10.776 + x_8.407_m10.776 + x_6.345_m10.776 + x_4.284_m10.776
      + x_10.468_2.155 + x_10.468_0.0 + x_10.468_m2.155 + x_10.468_m4.31
      + x_10.468_m6.466 + x_10.468_m8.621 = 1
 c16: x_m10.468_10.776 + x_0.0_10.776 + x_m2.094_10.776 + x_m4.187_10.776
      + x_m6.281_10.776 + x_m8.374_10.776 + x_m10.468_6.867 + x_m8.245_6.867 = 
      1
 c17: x_m6.023_m1.954 + x_m6.023_0.251 + x_m6.023_2.456 + x_m6.023_4.662
      + x_0.0_10.776 + x_m2.094_10.776 + x_m4.187_10.776 + x_m6.281_10.776
      + x_m8.374_10.776 = 1
 c18: x_m6.023_m4.16 + x_m6.023_m1.954 + x_m6.023_0.251 + x_m6.023_2.456
      + x_m6.023_4.662 = 1
 c19: x_m6.023_m4.16 + x_m6.023_m1.954 + x_m6.023_0.251 = 1
 c20: x_8.407_m10.776 + x_6.345_m10.776 + x_4.284_m10.776 + x_2.223_m10.776
      + x_0.161_m10.776 + x_10.468_0.0 + x_10.468_m2.155 + x_10.468_m4.31
      + x_10.468_m6.466 + x_10.468_m8.621 = 1
 c21: x_10.468_m10.776 + x_8.407_m10.776 + x_6.345_m10.776 + x_4.284_m10.776
      + x_2.223_m10.776 + x_0.161_m10.776 + x_10.468_0.0 + x_10.468_m2.155
      + x_10.468_m4.31 + x_10.468_m6.466 + x_10.468_m8.621 = 1
 c22: x_m6.023_m4.16 + x_m6.023_m1.954 + x_m6.023_0.251 + x_m6.023_2.456
      + x_m6.023_4.662 = 1
 c23: x_m6.023_m6.365 + x_m6.023_m4.16 + x_m6.023_m1.954 + x_m6.023_0.251
      + x_m6.023_2.456 + x_m6.023_4.662 = 1
 c24: x_6.345_m10.776 + x_4.284_m10.776 + x_2.223_m10.776 + x_0.161_m10.776
      + x_m1.9_m10.776 + x_m6.023_m6.365 + x_m6.023_m4.16 + x_m6.023_m1.954 = 1
 c25: x_10.468_m10.776 + x_8.407_m10.776 + x_6.345_m10.776 + x_4.284_m10.776
      + x_2.223_m10.776 + x_0.161_m10.776 + x_m1.9_m10.776 + x_10.468_m2.155
      + x_10.468_m4.31 + x_10.468_m6.466 + x_10.468_m8.621 = 1
 c26: x_10.468_m10.776 + x_8.407_m10.776 + x_6.345_m10.776 + x_4.284_m10.776
      + x_2.223_m10.776 + x_0.161_m10.776 + x_10.468_m4.31 + x_10.468_m6.466
      + x_10.468_m8.621 = 1
 c27: x_m6.023_m8.571 + x_m6.023_m6.365 + x_m6.023_m4.16 + x_m6.023_m1.954
      + x_m6.023_0.251 + x_m6.023_2.456 + x_m6.023_4.662 = 1
 c28: x_2.223_m10.776 + x_0.161_m10.776 + x_m1.9_m10.776 + x_m3.962_m10.776
      + x_m6.023_m10.776 + x_m6.023_m8.571 + x_m6.023_m6.365 + x_m6.023_m4.16
      + x_m6.023_m1.954 + x_m6.023_0.251 + x_m6.023_2.456 = 1
 c29: x_8.407_m10.776 + x_6.345_m10.776 + x_4.284_m10.776 + x_2.223_m10.776
      + x_0.161_m10.776 + x_m1.9_m10.776 + x_m3.962_m10.776 + x_m6.023_m8.571
      + x_m6.023_m6.365 + x_m6.023_m4.16 = 1
 c30: x_10.468_m10.776 + x_8.407_m10.776 + x_6.345_m10.776 + x_4.284_m10.776
      + x_2.223_m10.776 + x_0.161_m10.776 + x_m1.9_m10.776 + x_10.468_m6.466
      + x_10.468_m8.621 = 1
 c31: x_0.161_m10.776 + x_m1.9_m10.776 + x_m3.962_m10.776 + x_m6.023_m10.776
      + x_m6.023_m8.571 + x_m6.023_m6.365 + x_m6.023_m4.16 + x_m6.023_m1.954
      + x_m6.023_0.251 + x_m6.023_2.456 = 1
 c32: x_4.284_m10.776 + x_2.223_m10.776 + x_0.161_m10.776 + x_m1.9_m10.776
      + x_m3.962_m10.776 + x_m6.023_m10.776 + x_m6.023_m8.571 + x_m6.023_m6.365
      + x_m6.023_m4.16 + x_m6.023_m1.954 = 1
 c33: x_8.407_m10.776 + x_6.345_m10.776 + x_4.284_m10.776 + x_2.223_m10.776
      + x_0.161_m10.776 + x_m1.9_m10.776 + x_m3.962_m10.776 + x_m6.023_m10.776
      + x_m6.023_m8.571 = 1
 c34: x_2.223_m10.776 + x_0.161_m10.776 + x_m1.9_m10.776 + x_m3.962_m10.776
      + x_m6.023_m10.776 + x_m6.023_m8.571 + x_m6.023_m6.365 + x_m6.023_m4.16
      + x_m6.023_m1.954 + x_m6.023_0.251 = 1
 c35: x_6.345_m10.776 + x_4.284_m10.776 + x_2.223_m10.776 + x_0.161_m10.776
      + x_m1.9_m10.776 + x_m3.962_m10.776 + x_m6.023_m10.776 + x_m6.023_m8.571
      + x_m6.023_m6.365 + x_m6.023_m4.16 = 1
 c36: x_2.223_m10.776 + x_0.161_m10.776 + x_m1.9_m10.776 + x_m3.962_m10.776
      + x_m6.023_m10.776 + x_m6.023_m8.571 + x_m6.023_m6.365 + x_m6.023_m4.16
       = 1
 c37: x_10.468_8.621#48 + x_10.468_6.466#49 + x_10.468_4.31#50
      + x_10.468_2.155#51 + x_10.468_10.776#66 + x_8.374_10.776#67
      + x_6.281_10.776#68 + x_4.187_10.776#69 + x_2.094_10.776#70
      + x_0.0_10.776#71 >= 1
 c38: x_10.468_8.621#48 + x_10.468_6.466#49 + x_10.468_4.31#50
      + x_10.468_2.155#51 + x_10.468_10.776#66 + x_8.374_10.776#67
      + x_6.281_10.776#68 + x_4.187_10.776#69 + x_2.094_10.776#70
      + x_0.0_10.776#71 + x_m2.094_10.776#72 >= 1
 c39: x_10.468_8.621#48 + x_10.468_6.466#49 + x_10.468_4.31#50
      + x_10.468_2.155#51 + x_10.468_0.0#52 + x_10.468_m2.155#53
      + x_10.468_10.776#66 + x_8.374_10.776#67 + x_6.281_10.776#68
      + x_4.187_10.776#69 + x_2.094_10.776#70 >= 1
 c40: x_m6.023_4.662#64 + x_8.374_10.776#67 + x_6.281_10.776#68
      + x_4.187_10.776#69 + x_2.094_10.776#70 + x_0.0_10.776#71
      + x_m2.094_10.776#72 + x_m4.187_10.776#73 >= 1
 c41: x_10.468_8.621#48 + x_10.468_6.466#49 + x_10.468_4.31#50
      + x_10.468_2.155#51 + x_10.468_0.0#52 + x_8.374_10.776#67
      + x_6.281_10.776#68 + x_4.187_10.776#69 + x_2.094_10.776#70
      + x_0.0_10.776#71 >= 1
 c42: x_10.468_8.621#48 + x_10.468_6.466#49 + x_10.468_4.31#50
      + x_10.468_2.155#51 + x_10.468_0.0#52 + x_10.468_m2.155#53
      + x_10.468_m4.31#54 >= 1
 c43: x_m6.023_2.456#63 + x_m6.023_4.662#64 + x_4.187_10.776#69
      + x_2.094_10.776#70 + x_0.0_10.776#71 + x_m2.094_10.776#72
      + x_m4.187_10.776#73 + x_m6.281_10.776#74 + x_m8.374_10.776#75
      + x_m8.245_6.867#77 >= 1
 c44: x_m6.023_2.456#63 + x_m6.023_4.662#64 + x_6.281_10.776#68
      + x_4.187_10.776#69 + x_2.094_10.776#70 + x_0.0_10.776#71
      + x_m2.094_10.776#72 >= 1
 c45: x_10.468_6.466#49 + x_10.468_4.31#50 + x_10.468_2.155#51 + x_10.468_0.0#52
      + x_10.468_m2.155#53 >= 1
 c46: x_10.468_4.31#50 + x_10.468_2.155#51 + x_10.468_0.0#52
      + x_10.468_m2.155#53 + x_10.468_m4.31#54 + x_10.468_m6.466#55
      + x_10.468_m8.621#56 >= 1
 c47: x_m6.023_0.251#62 + x_m6.023_2.456#63 + x_m6.023_4.662#64
      + x_m10.468_10.776#65 + x_2.094_10.776#70 + x_0.0_10.776#71
      + x_m2.094_10.776#72 + x_m4.187_10.776#73 + x_m6.281_10.776#74
      + x_m8.374_10.776#75 + x_m10.468_6.867#76 + x_m8.245_6.867#77 >= 1
 c48: x_m6.023_m1.954#61 + x_m6.023_0.251#62 + x_m6.023_2.456#63
      + x_m6.023_4.662#64 + x_2.094_10.776#70 + x_0.0_10.776#71
      + x_m2.094_10.776#72 + x_m4.187_10.776#73 + x_m6.281_10.776#74 >= 1
 c49: x_m6.023_0.251#62 + x_m6.023_2.456#63 + x_m6.023_4.662#64 >= 1
 c50: x_10.468_4.31#50 + x_10.468_2.155#51 + x_10.468_0.0#52
      + x_10.468_m2.155#53 + x_10.468_m4.31#54 + x_10.468_m6.466#55 >= 1
 c51: x_10.468_m10.776#39 + x_8.407_m10.776#40 + x_6.345_m10.776#41
      + x_4.284_m10.776#42 + x_10.468_2.155#51 + x_10.468_0.0#52
      + x_10.468_m2.155#53 + x_10.468_m4.31#54 + x_10.468_m6.466#55
      + x_10.468_m8.621#56 >= 1
 c52: x_m10.468_10.776#65 + x_0.0_10.776#71 + x_m2.094_10.776#72
      + x_m4.187_10.776#73 + x_m6.281_10.776#74 + x_m8.374_10.776#75
      + x_m10.468_6.867#76 + x_m8.245_6.867#77 >= 1
 c53: x_m6.023_m1.954#61 + x_m6.023_0.251#62 + x_m6.023_2.456#63
      + x_m6.023_4.662#64 + x_0.0_10.776#71 + x_m2.094_10.776#72
      + x_m4.187_10.776#73 + x_m6.281_10.776#74 + x_m8.374_10.776#75 >= 1
 c54: x_m6.023_m4.16#60 + x_m6.023_m1.954#61 + x_m6.023_0.251#62
      + x_m6.023_2.456#63 + x_m6.023_4.662#64 >= 1
 c55: x_m6.023_m4.16#60 + x_m6.023_m1.954#61 + x_m6.023_0.251#62 >= 1
 c56: x_8.407_m10.776#40 + x_6.345_m10.776#41 + x_4.284_m10.776#42
      + x_2.223_m10.776#43 + x_0.161_m10.776#44 + x_10.468_0.0#52
      + x_10.468_m2.155#53 + x_10.468_m4.31#54 + x_10.468_m6.466#55
      + x_10.468_m8.621#56 >= 1
 c57: x_10.468_m10.776#39 + x_8.407_m10.776#40 + x_6.345_m10.776#41
      + x_4.284_m10.776#42 + x_2.223_m10.776#43 + x_0.161_m10.776#44
      + x_10.468_0.0#52 + x_10.468_m2.155#53 + x_10.468_m4.31#54
      + x_10.468_m6.466#55 + x_10.468_m8.621#56 >= 1
 c58: x_m6.023_m4.16#60 + x_m6.023_m1.954#61 + x_m6.023_0.251#62
      + x_m6.023_2.456#63 + x_m6.023_4.662#64 >= 1
 c59: x_m6.023_m6.365#59 + x_m6.023_m4.16#60 + x_m6.023_m1.954#61
      + x_m6.023_0.251#62 + x_m6.023_2.456#63 + x_m6.023_4.662#64 >= 1
 c60: x_6.345_m10.776#41 + x_4.284_m10.776#42 + x_2.223_m10.776#43
      + x_0.161_m10.776#44 + x_m1.9_m10.776#45 + x_m6.023_m6.365#59
      + x_m6.023_m4.16#60 + x_m6.023_m1.954#61 >= 1
 c61: x_10.468_m10.776#39 + x_8.407_m10.776#40 + x_6.345_m10.776#41
      + x_4.284_m10.776#42 + x_2.223_m10.776#43 + x_0.161_m10.776#44
      + x_m1.9_m10.776#45 + x_10.468_m2.155#53 + x_10.468_m4.31#54
      + x_10.468_m6.466#55 + x_10.468_m8.621#56 >= 1
 c62: x_10.468_m10.776#39 + x_8.407_m10.776#40 + x_6.345_m10.776#41
      + x_4.284_m10.776#42 + x_2.223_m10.776#43 + x_0.161_m10.776#44
      + x_10.468_m4.31#54 + x_10.468_m6.466#55 + x_10.468_m8.621#56 >= 1
 c63: x_m6.023_m8.571#58 + x_m6.023_m6.365#59 + x_m6.023_m4.16#60
      + x_m6.023_m1.954#61 + x_m6.023_0.251#62 + x_m6.023_2.456#63
      + x_m6.023_4.662#64 >= 1
 c64: x_2.223_m10.776#43 + x_0.161_m10.776#44 + x_m1.9_m10.776#45
      + x_m3.962_m10.776#46 + x_m6.023_m10.776#57 + x_m6.023_m8.571#58
      + x_m6.023_m6.365#59 + x_m6.023_m4.16#60 + x_m6.023_m1.954#61
      + x_m6.023_0.251#62 + x_m6.023_2.456#63 >= 1
 c65: x_8.407_m10.776#40 + x_6.345_m10.776#41 + x_4.284_m10.776#42
      + x_2.223_m10.776#43 + x_0.161_m10.776#44 + x_m1.9_m10.776#45
      + x_m3.962_m10.776#46 + x_m6.023_m8.571#58 + x_m6.023_m6.365#59
      + x_m6.023_m4.16#60 >= 1
 c66: x_10.468_m10.776#39 + x_8.407_m10.776#40 + x_6.345_m10.776#41
      + x_4.284_m10.776#42 + x_2.223_m10.776#43 + x_0.161_m10.776#44
      + x_m1.9_m10.776#45 + x_10.468_m6.466#55 + x_10.468_m8.621#56 >= 1
 c67: x_0.161_m10.776#44 + x_m1.9_m10.776#45 + x_m3.962_m10.776#46
      + x_m6.023_m10.776#57 + x_m6.023_m8.571#58 + x_m6.023_m6.365#59
      + x_m6.023_m4.16#60 + x_m6.023_m1.954#61 + x_m6.023_0.251#62
      + x_m6.023_2.456#63 >= 1
 c68: x_4.284_m10.776#42 + x_2.223_m10.776#43 + x_0.161_m10.776#44
      + x_m1.9_m10.776#45 + x_m3.962_m10.776#46 + x_m6.023_m10.776#57
      + x_m6.023_m8.571#58 + x_m6.023_m6.365#59 + x_m6.023_m4.16#60
      + x_m6.023_m1.954#61 >= 1
 c69: x_8.407_m10.776#40 + x_6.345_m10.776#41 + x_4.284_m10.776#42
      + x_2.223_m10.776#43 + x_0.161_m10.776#44 + x_m1.9_m10.776#45
      + x_m3.962_m10.776#46 + x_m6.023_m10.776#57 + x_m6.023_m8.571#58 >= 1
 c70: x_2.223_m10.776#43 + x_0.161_m10.776#44 + x_m1.9_m10.776#45
      + x_m3.962_m10.776#46 + x_m6.023_m10.776#57 + x_m6.023_m8.571#58
      + x_m6.023_m6.365#59 + x_m6.023_m4.16#60 + x_m6.023_m1.954#61
      + x_m6.023_0.251#62 >= 1
 c71: x_6.345_m10.776#41 + x_4.284_m10.776#42 + x_2.223_m10.776#43
      + x_0.161_m10.776#44 + x_m1.9_m10.776#45 + x_m3.962_m10.776#46
      + x_m6.023_m10.776#57 + x_m6.023_m8.571#58 + x_m6.023_m6.365#59
      + x_m6.023_m4.16#60 >= 1
 c72: x_2.223_m10.776#43 + x_0.161_m10.776#44 + x_m1.9_m10.776#45
      + x_m3.962_m10.776#46 + x_m6.023_m10.776#57 + x_m6.023_m8.571#58
      + x_m6.023_m6.365#59 + x_m6.023_m4.16#60 >= 1

Bounds
 0 <= x_10.468_m10.776 <= 1
 0 <= x_8.407_m10.776 <= 1
 0 <= x_6.345_m10.776 <= 1
 0 <= x_4.284_m10.776 <= 1
 0 <= x_2.223_m10.776 <= 1
 0 <= x_0.161_m10.776 <= 1
 0 <= x_m1.9_m10.776 <= 1
 0 <= x_m3.962_m10.776 <= 1
 0 <= x_10.468_10.776 <= 1
 0 <= x_10.468_8.621 <= 1
 0 <= x_10.468_6.466 <= 1
 0 <= x_10.468_4.31 <= 1
 0 <= x_10.468_2.155 <= 1
 0 <= x_10.468_0.0 <= 1
 0 <= x_10.468_m2.155 <= 1
 0 <= x_10.468_m4.31 <= 1
 0 <= x_10.468_m6.466 <= 1
 0 <= x_10.468_m8.621 <= 1
 0 <= x_m6.023_m10.776 <= 1
 0 <= x_m6.023_m8.571 <= 1
 0 <= x_m6.023_m6.365 <= 1
 0 <= x_m6.023_m4.16 <= 1
 0 <= x_m6.023_m1.954 <= 1
 0 <= x_m6.023_0.251 <= 1
 0 <= x_m6.023_2.456 <= 1
 0 <= x_m6.023_4.662 <= 1
 0 <= x_m10.468_10.776 <= 1
 0 <= x_10.468_10.776#27 <= 1
 0 <= x_8.374_10.776 <= 1
 0 <= x_6.281_10.776 <= 1
 0 <= x_4.187_10.776 <= 1
 0 <= x_2.094_10.776 <= 1
 0 <= x_0.0_10.776 <= 1
 0 <= x_m2.094_10.776 <= 1
 0 <= x_m4.187_10.776 <= 1
 0 <= x_m6.281_10.776 <= 1
 0 <= x_m8.374_10.776 <= 1
 0 <= x_m10.468_6.867 <= 1
 0 <= x_m8.245_6.867 <= 1
 0 <= x_10.468_m10.776#39 <= 1
 0 <= x_8.407_m10.776#40 <= 1
 0 <= x_6.345_m10.776#41 <= 1
 0 <= x_4.284_m10.776#42 <= 1
 0 <= x_2.223_m10.776#43 <= 1
 0 <= x_0.161_m10.776#44 <= 1
 0 <= x_m1.9_m10.776#45 <= 1
 0 <= x_m3.962_m10.776#46 <= 1
 0 <= x_10.468_10.776#47 <= 1
 0 <= x_10.468_8.621#48 <= 1
 0 <= x_10.468_6.466#49 <= 1
 0 <= x_10.468_4.31#50 <= 1
 0 <= x_10.468_2.155#51 <= 1
 0 <= x_10.468_0.0#52 <= 1
 0 <= x_10.468_m2.155#53 <= 1
 0 <= x_10.468_m4.31#54 <= 1
 0 <= x_10.468_m6.466#55 <= 1
 0 <= x_10.468_m8.621#56 <= 1
 0 <= x_m6.023_m10.776#57 <= 1
 0 <= x_m6.023_m8.571#58 <= 1
 0 <= x_m6.023_m6.365#59 <= 1
 0 <= x_m6.023_m4.16#60 <= 1
 0 <= x_m6.023_m1.954#61 <= 1
 0 <= x_m6.023_0.251#62 <= 1
 0 <= x_m6.023_2.456#63 <= 1
 0 <= x_m6.023_4.662#64 <= 1
 0 <= x_m10.468_10.776#65 <= 1
 0 <= x_10.468_10.776#66 <= 1
 0 <= x_8.374_10.776#67 <= 1
 0 <= x_6.281_10.776#68 <= 1
 0 <= x_4.187_10.776#69 <= 1
 0 <= x_2.094_10.776#70 <= 1
 0 <= x_0.0_10.776#71 <= 1
 0 <= x_m2.094_10.776#72 <= 1
 0 <= x_m4.187_10.776#73 <= 1
 0 <= x_m6.281_10.776#74 <= 1
 0 <= x_m8.374_10.776#75 <= 1
 0 <= x_m10.468_6.867#76 <= 1
 0 <= x_m8.245_6.867#77 <= 1

Binaries
 x_10.468_m10.776 x_8.407_m10.776 x_6.345_m10.776 x_4.284_m10.776
 x_2.223_m10.776 x_0.161_m10.776 x_m1.9_m10.776 x_m3.962_m10.776 x_10.468_10.776
 x_10.468_8.621 x_10.468_6.466 x_10.468_4.31 x_10.468_2.155 x_10.468_0.0
 x_10.468_m2.155 x_10.468_m4.31 x_10.468_m6.466 x_10.468_m8.621 x_m6.023_m10.776
 x_m6.023_m8.571 x_m6.023_m6.365 x_m6.023_m4.16 x_m6.023_m1.954 x_m6.023_0.251
 x_m6.023_2.456 x_m6.023_4.662 x_m10.468_10.776 x_10.468_10.776#27
 x_8.374_10.776 x_6.281_10.776 x_4.187_10.776 x_2.094_10.776 x_0.0_10.776
 x_m2.094_10.776 x_m4.187_10.776 x_m6.281_10.776 x_m8.374_10.776 x_m10.468_6.867
 x_m8.245_6.867 x_10.468_m10.776#39 x_8.407_m10.776#40 x_6.345_m10.776#41
 x_4.284_m10.776#42 x_2.223_m10.776#43 x_0.161_m10.776#44 x_m1.9_m10.776#45
 x_m3.962_m10.776#46 x_10.468_10.776#47 x_10.468_8.621#48 x_10.468_6.466#49
 x_10.468_4.31#50 x_10.468_2.155#51 x_10.468_0.0#52 x_10.468_m2.155#53
 x_10.468_m4.31#54 x_10.468_m6.466#55 x_10.468_m8.621#56 x_m6.023_m10.776#57
 x_m6.023_m8.571#58 x_m6.023_m6.365#59 x_m6.023_m4.16#60 x_m6.023_m1.954#61
 x_m6.023_0.251#62 x_m6.023_2.456#63 x_m6.023_4.662#64 x_m10.468_10.776#65
 x_10.468_10.776#66 x_8.374_10.776#67 x_6.281_10.776#68 x_4.187_10.776#69
 x_2.094_10.776#70 x_0.0_10.776#71 x_m2.094_10.776#72 x_m4.187_10.776#73
 x_m6.281_10.776#74 x_m8.374_10.776#75 x_m10.468_6.867#76 x_m8.245_6.867#77
End
